Copyright (C) 2013-2015, Filipe Brandao
Build (method = -2)
  #dp: 10891
  Step-3' Graph: 206 vertices and 4747 arcs (0.01s)
  Step-4' Graph: 171 vertices and 4677 arcs (0.01s)
  #V4/#V3 = 0.83
  #A4/#A3 = 0.99
Ready! (0.01s)
Optimize a model with 312 rows, 4678 columns and 13696 nonzeros
Found heuristic solution: objective 165
Presolve removed 65 rows and 82 columns
Presolve time: 0.03s
Presolved: 247 rows, 4596 columns, 12807 nonzeros
Variable types: 0 continuous, 4596 integer (3267 binary)
Optimize a model with 247 rows, 4596 columns and 12807 nonzeros
Presolved: 247 rows, 4596 columns, 12807 nonzeros

Root barrier log...

Ordering time: 0.00s

Barrier statistics:
 AA' NZ     : 6.617e+03
 Factor NZ  : 1.397e+04 (roughly 2 MBytes of memory)
 Factor Ops : 1.081e+06 (less than 1 second per iteration)
 Threads    : 1

                  Objective                Residual
Iter       Primal          Dual         Primal    Dual     Compl     Time
   0   6.78772933e+03 -2.51204596e+04  6.14e+04 1.88e-01  3.07e+01     0s
   1   1.38247424e+03 -5.67058457e+03  8.63e+03 1.33e-15  4.47e+00     0s
   2   3.41578786e+02 -1.86236998e+03  6.65e+02 3.22e-15  5.02e-01     0s
   3   1.80138974e+02 -3.71241904e+02  6.96e+01 1.11e-15  8.18e-02     0s
   4   1.25037695e+02 -1.27401536e+02  1.27e+01 1.25e-15  3.08e-02     0s
   5   1.14936436e+02 -1.23273946e+01  6.15e+00 1.36e-15  1.51e-02     0s
   6   1.07697853e+02  1.83057719e+01  3.61e+00 1.53e-15  1.04e-02     0s
   7   9.81212569e+01  3.80870672e+01  1.20e+00 1.52e-15  6.72e-03     0s
   8   9.68778332e+01  6.71208124e+01  8.24e-01 1.22e-15  3.32e-03     0s
   9   9.44926048e+01  8.32216925e+01  3.30e-01 1.45e-15  1.25e-03     0s
  10   9.32712526e+01  8.70098630e+01  1.91e-01 1.46e-15  6.93e-04     0s
  11   9.26441076e+01  9.01429289e+01  1.00e-01 1.28e-15  2.77e-04     0s
  12   9.20945782e+01  9.07587374e+01  3.73e-02 1.55e-15  1.47e-04     0s
  13   9.18538500e+01  9.12660079e+01  1.03e-02 1.18e-15  6.43e-05     0s
  14   9.17883194e+01  9.16256343e+01  2.89e-03 1.41e-15  1.78e-05     0s
  15   9.17530590e+01  9.17095494e+01  1.42e-04 1.11e-15  4.73e-06     0s
  16   9.17501686e+01  9.17497503e+01  5.52e-07 1.25e-15  4.54e-08     0s
  17   9.17500002e+01  9.17499998e+01  3.35e-12 1.39e-15  4.54e-11     0s
  18   9.17500000e+01  9.17500000e+01  4.01e-13 1.10e-15  5.57e-17     0s

Barrier solved model in 18 iterations and 0.04 seconds
Optimal objective 9.17500000e+01


Root relaxation: objective 9.175000e+01, 920 iterations, 0.05 seconds

    Nodes    |    Current Node    |     Objective Bounds      |     Work
 Expl Unexpl |  Obj  Depth IntInf | Incumbent    BestBd   Gap | It/Node Time

     0     0   91.75000    0   14  165.00000   91.75000  44.4%     -    0s
H    0     0                      92.0000000   91.75000  0.27%     -    0s

Explored 0 nodes (1583 simplex iterations) in 0.11 seconds
Thread count was 1 (of 4 available processors)

Optimal solution found (tolerance 0.00e+00)
Best objective 9.200000000000e+01, best bound 9.200000000000e+01, gap 0.0%
Preprocessing time: 0.02 seconds
Gurobi run time: 0.11 seconds
Total run time: 0.13 seconds
Objective: 92
Solution:
1 x [i=1, i=113]
1 x [i=2, i=112]
3 x [i=3, i=114]
1 x [i=4, i=115]
1 x [i=5, i=110]
1 x [i=6, i=111]
3 x [i=7, i=121]
2 x [i=8, i=108]
1 x [i=9, i=108]
2 x [i=10, i=107]
2 x [i=11, i=116]
1 x [i=12, i=107]
1 x [i=13, i=105]
1 x [i=13, i=109]
1 x [i=14, i=106]
1 x [i=14, i=118]
1 x [i=15, i=104]
1 x [i=16, i=103]
1 x [i=16, i=119]
1 x [i=17, i=120]
1 x [i=18, i=102]
1 x [i=19, i=100]
1 x [i=20, i=99]
1 x [i=21, i=98]
1 x [i=22, i=97]
1 x [i=23, i=96]
1 x [i=24, i=98]
1 x [i=25, i=94]
1 x [i=26, i=93]
1 x [i=27, i=92]
1 x [i=27, i=94]
2 x [i=28, i=90]
1 x [i=29, i=91]
1 x [i=30, i=86]
2 x [i=31, i=87]
1 x [i=31, i=88]
1 x [i=32, i=85]
1 x [i=33, i=91]
1 x [i=34, i=83]
1 x [i=34, i=84]
1 x [i=35, i=82]
1 x [i=36, i=138, i=138]
1 x [i=37, i=81]
1 x [i=37, i=95]
1 x [i=37, i=140, i=140]
1 x [i=38, i=80]
1 x [i=38, i=137, i=139]
1 x [i=39, i=79]
1 x [i=40, i=79]
2 x [i=41, i=79]
1 x [i=42, i=77]
1 x [i=43, i=74]
1 x [i=44, i=76]
1 x [i=45, i=75]
1 x [i=46, i=72]
1 x [i=46, i=73]
1 x [i=47, i=70]
1 x [i=48, i=69]
2 x [i=49, i=69]
1 x [i=50, i=67]
1 x [i=50, i=68]
1 x [i=50, i=132, i=136]
1 x [i=51, i=66]
1 x [i=52, i=64]
1 x [i=52, i=65]
1 x [i=53, i=66]
2 x [i=54, i=62]
1 x [i=55, i=61]
1 x [i=56, i=130, i=135]
1 x [i=57, i=128, i=134]
1 x [i=58, i=129, i=131]
1 x [i=59, i=125]
1 x [i=60, i=123, i=131]
1 x [i=62, i=126, i=126]
1 x [i=63, i=122, i=127]
1 x [i=65, i=117, i=133]
1 x [i=71, i=122, i=123]
1 x [i=78, i=101, i=141]
1 x [i=89, i=101, i=132]
1 x [i=124, i=128, i=131, i=131]
